# Solution for model r10_t27_m4_6
# Finished Task: 27 / 27
# Makespan: 422.0, Total Distance: 1254.0, Total Time: 0.2755
# R O S F
0 0 16 0.0 0.0
1 1 19 0.0 0.0
2 2 28 0.0 0.0
3 3 23 0.0 0.0
4 4 35 0.0 0.0
5 5 36 0.0 0.0
6 6 13 0.0 0.0
7 7 14 0.0 0.0
8 8 27 0.0 0.0
9 9 20 0.0 0.0
10 1 15 260.0 284.0
11 8 -1 375.0 398.0
12 1 10 183.0 205.0
13 6 25 189.0 219.0
14 7 30 95.0 119.0
15 1 -1 368.0 406.0
16 0 31 233.0 260.0
17 5 24 298.0 329.0
18 3 -1 342.0 366.0
19 1 12 113.0 144.0
20 9 26 169.0 204.0
21 8 11 317.0 342.0
22 8 21 251.0 275.0
23 3 18 277.0 304.0
24 5 -1 368.0 399.0
25 6 -1 303.0 330.0
26 9 32 228.0 264.0
27 8 22 143.0 171.0
28 2 29 216.0 254.0
29 2 -1 397.0 422.0
30 7 -1 272.0 311.0
31 0 -1 319.0 343.0
32 9 -1 298.0 336.0
33 4 -1 327.0 358.0
34 4 33 254.0 288.0
35 4 34 125.0 163.0
36 5 17 223.0 251.0
